NAME : Ex1-d5
TYPE : CVRP
DIMENSION : 5
NODE_COORD_SECTION
1 0 0
2 1 0
3 0 1
4 -1 0
5 0 -1
TIME
0.00 1.00 10.0 10.0 1.00
1.00 0.00 8.69 10.0 10.0
10.0 1.00 0.00 9.60 10.0
10.0 10.0 1.00 0.00 10.0
6.94 10.0 10.0 1.00 0.00